\* Source Pyomo model name=DESPACHO PROGRAMADO *\

min 
Obj:
+75000000 a(FLORES4B_1)
+75000000 a(FLORES4B_10)
+75000000 a(FLORES4B_11)
+75000000 a(FLORES4B_12)
+75000000 a(FLORES4B_13)
+75000000 a(FLORES4B_14)
+75000000 a(FLORES4B_15)
+75000000 a(FLORES4B_16)
+75000000 a(FLORES4B_17)
+75000000 a(FLORES4B_18)
+75000000 a(FLORES4B_19)
+75000000 a(FLORES4B_2)
+75000000 a(FLORES4B_20)
+75000000 a(FLORES4B_21)
+75000000 a(FLORES4B_22)
+75000000 a(FLORES4B_23)
+75000000 a(FLORES4B_24)
+75000000 a(FLORES4B_3)
+75000000 a(FLORES4B_4)
+75000000 a(FLORES4B_5)
+75000000 a(FLORES4B_6)
+75000000 a(FLORES4B_7)
+75000000 a(FLORES4B_8)
+75000000 a(FLORES4B_9)
+195241 g(FLORES4B_1)
+195241 g(FLORES4B_10)
+195241 g(FLORES4B_11)
+195241 g(FLORES4B_12)
+195241 g(FLORES4B_13)
+195241 g(FLORES4B_14)
+195241 g(FLORES4B_15)
+195241 g(FLORES4B_16)
+195241 g(FLORES4B_17)
+195241 g(FLORES4B_18)
+195241 g(FLORES4B_19)
+195241 g(FLORES4B_2)
+195241 g(FLORES4B_20)
+195241 g(FLORES4B_21)
+195241 g(FLORES4B_22)
+195241 g(FLORES4B_23)
+195241 g(FLORES4B_24)
+195241 g(FLORES4B_3)
+195241 g(FLORES4B_4)
+195241 g(FLORES4B_5)
+195241 g(FLORES4B_6)
+195241 g(FLORES4B_7)
+195241 g(FLORES4B_8)
+195241 g(FLORES4B_9)
+100000 g(GUAVIO_1)
+100000 g(GUAVIO_10)
+100000 g(GUAVIO_11)
+100000 g(GUAVIO_12)
+100000 g(GUAVIO_13)
+100000 g(GUAVIO_14)
+100000 g(GUAVIO_15)
+100000 g(GUAVIO_16)
+100000 g(GUAVIO_17)
+100000 g(GUAVIO_18)
+100000 g(GUAVIO_19)
+100000 g(GUAVIO_2)
+100000 g(GUAVIO_20)
+100000 g(GUAVIO_21)
+100000 g(GUAVIO_22)
+100000 g(GUAVIO_23)
+100000 g(GUAVIO_24)
+100000 g(GUAVIO_3)
+100000 g(GUAVIO_4)
+100000 g(GUAVIO_5)
+100000 g(GUAVIO_6)
+100000 g(GUAVIO_7)
+100000 g(GUAVIO_8)
+100000 g(GUAVIO_9)
+80530 g(PORCE3_1)
+80530 g(PORCE3_10)
+80530 g(PORCE3_11)
+80530 g(PORCE3_12)
+80530 g(PORCE3_13)
+80530 g(PORCE3_14)
+80530 g(PORCE3_15)
+80530 g(PORCE3_16)
+80530 g(PORCE3_17)
+80530 g(PORCE3_18)
+80530 g(PORCE3_19)
+80530 g(PORCE3_2)
+80530 g(PORCE3_20)
+80530 g(PORCE3_21)
+80530 g(PORCE3_22)
+80530 g(PORCE3_23)
+80530 g(PORCE3_24)
+80530 g(PORCE3_3)
+80530 g(PORCE3_4)
+80530 g(PORCE3_5)
+80530 g(PORCE3_6)
+80530 g(PORCE3_7)
+80530 g(PORCE3_8)
+80530 g(PORCE3_9)
+70000 g(SUPERTRINA_1)
+70000 g(SUPERTRINA_10)
+70000 g(SUPERTRINA_11)
+70000 g(SUPERTRINA_12)
+70000 g(SUPERTRINA_13)
+70000 g(SUPERTRINA_14)
+70000 g(SUPERTRINA_15)
+70000 g(SUPERTRINA_16)
+70000 g(SUPERTRINA_17)
+70000 g(SUPERTRINA_18)
+70000 g(SUPERTRINA_19)
+70000 g(SUPERTRINA_2)
+70000 g(SUPERTRINA_20)
+70000 g(SUPERTRINA_21)
+70000 g(SUPERTRINA_22)
+70000 g(SUPERTRINA_23)
+70000 g(SUPERTRINA_24)
+70000 g(SUPERTRINA_3)
+70000 g(SUPERTRINA_4)
+70000 g(SUPERTRINA_5)
+70000 g(SUPERTRINA_6)
+70000 g(SUPERTRINA_7)
+70000 g(SUPERTRINA_8)
+70000 g(SUPERTRINA_9)
+2000000 r(1)
+2000000 r(10)
+2000000 r(11)
+2000000 r(12)
+2000000 r(13)
+2000000 r(14)
+2000000 r(15)
+2000000 r(16)
+2000000 r(17)
+2000000 r(18)
+2000000 r(19)
+2000000 r(2)
+2000000 r(20)
+2000000 r(21)
+2000000 r(22)
+2000000 r(23)
+2000000 r(24)
+2000000 r(3)
+2000000 r(4)
+2000000 r(5)
+2000000 r(6)
+2000000 r(7)
+2000000 r(8)
+2000000 r(9)

s.t.

c_u_R1(FLORES4B_1)_:
+1 g(FLORES4B_1)
-470 u(FLORES4B_1)
<= 0

c_u_R1(FLORES4B_2)_:
+1 g(FLORES4B_2)
-470 u(FLORES4B_2)
<= 0

c_u_R1(FLORES4B_3)_:
+1 g(FLORES4B_3)
-470 u(FLORES4B_3)
<= 0

c_u_R1(FLORES4B_4)_:
+1 g(FLORES4B_4)
-470 u(FLORES4B_4)
<= 0

c_u_R1(FLORES4B_5)_:
+1 g(FLORES4B_5)
-470 u(FLORES4B_5)
<= 0

c_u_R1(FLORES4B_6)_:
+1 g(FLORES4B_6)
-470 u(FLORES4B_6)
<= 0

c_u_R1(FLORES4B_7)_:
+1 g(FLORES4B_7)
-470 u(FLORES4B_7)
<= 0

c_u_R1(FLORES4B_8)_:
+1 g(FLORES4B_8)
-470 u(FLORES4B_8)
<= 0

c_u_R1(FLORES4B_9)_:
+1 g(FLORES4B_9)
-470 u(FLORES4B_9)
<= 0

c_u_R1(FLORES4B_10)_:
+1 g(FLORES4B_10)
-470 u(FLORES4B_10)
<= 0

c_u_R1(FLORES4B_11)_:
+1 g(FLORES4B_11)
-470 u(FLORES4B_11)
<= 0

c_u_R1(FLORES4B_12)_:
+1 g(FLORES4B_12)
-470 u(FLORES4B_12)
<= 0

c_u_R1(FLORES4B_13)_:
+1 g(FLORES4B_13)
-470 u(FLORES4B_13)
<= 0

c_u_R1(FLORES4B_14)_:
+1 g(FLORES4B_14)
-470 u(FLORES4B_14)
<= 0

c_u_R1(FLORES4B_15)_:
+1 g(FLORES4B_15)
-470 u(FLORES4B_15)
<= 0

c_u_R1(FLORES4B_16)_:
+1 g(FLORES4B_16)
-470 u(FLORES4B_16)
<= 0

c_u_R1(FLORES4B_17)_:
+1 g(FLORES4B_17)
-470 u(FLORES4B_17)
<= 0

c_u_R1(FLORES4B_18)_:
+1 g(FLORES4B_18)
-470 u(FLORES4B_18)
<= 0

c_u_R1(FLORES4B_19)_:
+1 g(FLORES4B_19)
-470 u(FLORES4B_19)
<= 0

c_u_R1(FLORES4B_20)_:
+1 g(FLORES4B_20)
-470 u(FLORES4B_20)
<= 0

c_u_R1(FLORES4B_21)_:
+1 g(FLORES4B_21)
-470 u(FLORES4B_21)
<= 0

c_u_R1(FLORES4B_22)_:
+1 g(FLORES4B_22)
-470 u(FLORES4B_22)
<= 0

c_u_R1(FLORES4B_23)_:
+1 g(FLORES4B_23)
-470 u(FLORES4B_23)
<= 0

c_u_R1(FLORES4B_24)_:
+1 g(FLORES4B_24)
-470 u(FLORES4B_24)
<= 0

c_u_R1(GUAVIO_1)_:
+1 g(GUAVIO_1)
-1220 u(GUAVIO_1)
<= 0

c_u_R1(GUAVIO_2)_:
+1 g(GUAVIO_2)
-1220 u(GUAVIO_2)
<= 0

c_u_R1(GUAVIO_3)_:
+1 g(GUAVIO_3)
-1220 u(GUAVIO_3)
<= 0

c_u_R1(GUAVIO_4)_:
+1 g(GUAVIO_4)
-1220 u(GUAVIO_4)
<= 0

c_u_R1(GUAVIO_5)_:
+1 g(GUAVIO_5)
-1220 u(GUAVIO_5)
<= 0

c_u_R1(GUAVIO_6)_:
+1 g(GUAVIO_6)
-1220 u(GUAVIO_6)
<= 0

c_u_R1(GUAVIO_7)_:
+1 g(GUAVIO_7)
-1220 u(GUAVIO_7)
<= 0

c_u_R1(GUAVIO_8)_:
+1 g(GUAVIO_8)
-1220 u(GUAVIO_8)
<= 0

c_u_R1(GUAVIO_9)_:
+1 g(GUAVIO_9)
-1220 u(GUAVIO_9)
<= 0

c_u_R1(GUAVIO_10)_:
+1 g(GUAVIO_10)
-1220 u(GUAVIO_10)
<= 0

c_u_R1(GUAVIO_11)_:
+1 g(GUAVIO_11)
-1220 u(GUAVIO_11)
<= 0

c_u_R1(GUAVIO_12)_:
+1 g(GUAVIO_12)
-1220 u(GUAVIO_12)
<= 0

c_u_R1(GUAVIO_13)_:
+1 g(GUAVIO_13)
-1220 u(GUAVIO_13)
<= 0

c_u_R1(GUAVIO_14)_:
+1 g(GUAVIO_14)
-1220 u(GUAVIO_14)
<= 0

c_u_R1(GUAVIO_15)_:
+1 g(GUAVIO_15)
-1220 u(GUAVIO_15)
<= 0

c_u_R1(GUAVIO_16)_:
+1 g(GUAVIO_16)
-1220 u(GUAVIO_16)
<= 0

c_u_R1(GUAVIO_17)_:
+1 g(GUAVIO_17)
-1220 u(GUAVIO_17)
<= 0

c_u_R1(GUAVIO_18)_:
+1 g(GUAVIO_18)
-1220 u(GUAVIO_18)
<= 0

c_u_R1(GUAVIO_19)_:
+1 g(GUAVIO_19)
-1220 u(GUAVIO_19)
<= 0

c_u_R1(GUAVIO_20)_:
+1 g(GUAVIO_20)
-1220 u(GUAVIO_20)
<= 0

c_u_R1(GUAVIO_21)_:
+1 g(GUAVIO_21)
-1220 u(GUAVIO_21)
<= 0

c_u_R1(GUAVIO_22)_:
+1 g(GUAVIO_22)
-1220 u(GUAVIO_22)
<= 0

c_u_R1(GUAVIO_23)_:
+1 g(GUAVIO_23)
-1220 u(GUAVIO_23)
<= 0

c_u_R1(GUAVIO_24)_:
+1 g(GUAVIO_24)
-1220 u(GUAVIO_24)
<= 0

c_u_R1(PORCE3_1)_:
+1 g(PORCE3_1)
-510 u(PORCE3_1)
<= 0

c_u_R1(PORCE3_2)_:
+1 g(PORCE3_2)
-510 u(PORCE3_2)
<= 0

c_u_R1(PORCE3_3)_:
+1 g(PORCE3_3)
-510 u(PORCE3_3)
<= 0

c_u_R1(PORCE3_4)_:
+1 g(PORCE3_4)
-510 u(PORCE3_4)
<= 0

c_u_R1(PORCE3_5)_:
+1 g(PORCE3_5)
-510 u(PORCE3_5)
<= 0

c_u_R1(PORCE3_6)_:
+1 g(PORCE3_6)
-510 u(PORCE3_6)
<= 0

c_u_R1(PORCE3_7)_:
+1 g(PORCE3_7)
-510 u(PORCE3_7)
<= 0

c_u_R1(PORCE3_8)_:
+1 g(PORCE3_8)
-510 u(PORCE3_8)
<= 0

c_u_R1(PORCE3_9)_:
+1 g(PORCE3_9)
-510 u(PORCE3_9)
<= 0

c_u_R1(PORCE3_10)_:
+1 g(PORCE3_10)
-510 u(PORCE3_10)
<= 0

c_u_R1(PORCE3_11)_:
+1 g(PORCE3_11)
-510 u(PORCE3_11)
<= 0

c_u_R1(PORCE3_12)_:
+1 g(PORCE3_12)
-510 u(PORCE3_12)
<= 0

c_u_R1(PORCE3_13)_:
+1 g(PORCE3_13)
-510 u(PORCE3_13)
<= 0

c_u_R1(PORCE3_14)_:
+1 g(PORCE3_14)
-510 u(PORCE3_14)
<= 0

c_u_R1(PORCE3_15)_:
+1 g(PORCE3_15)
-510 u(PORCE3_15)
<= 0

c_u_R1(PORCE3_16)_:
+1 g(PORCE3_16)
-510 u(PORCE3_16)
<= 0

c_u_R1(PORCE3_17)_:
+1 g(PORCE3_17)
-510 u(PORCE3_17)
<= 0

c_u_R1(PORCE3_18)_:
+1 g(PORCE3_18)
-510 u(PORCE3_18)
<= 0

c_u_R1(PORCE3_19)_:
+1 g(PORCE3_19)
-510 u(PORCE3_19)
<= 0

c_u_R1(PORCE3_20)_:
+1 g(PORCE3_20)
-510 u(PORCE3_20)
<= 0

c_u_R1(PORCE3_21)_:
+1 g(PORCE3_21)
-510 u(PORCE3_21)
<= 0

c_u_R1(PORCE3_22)_:
+1 g(PORCE3_22)
-510 u(PORCE3_22)
<= 0

c_u_R1(PORCE3_23)_:
+1 g(PORCE3_23)
-510 u(PORCE3_23)
<= 0

c_u_R1(PORCE3_24)_:
+1 g(PORCE3_24)
-510 u(PORCE3_24)
<= 0

c_u_R1(SUPERTRINA_1)_:
+1 g(SUPERTRINA_1)
<= 0

c_u_R1(SUPERTRINA_2)_:
+1 g(SUPERTRINA_2)
<= 0

c_u_R1(SUPERTRINA_3)_:
+1 g(SUPERTRINA_3)
<= 0

c_u_R1(SUPERTRINA_4)_:
+1 g(SUPERTRINA_4)
<= 0

c_u_R1(SUPERTRINA_5)_:
+1 g(SUPERTRINA_5)
<= 0

c_u_R1(SUPERTRINA_6)_:
+1 g(SUPERTRINA_6)
<= 0

c_u_R1(SUPERTRINA_7)_:
+1 g(SUPERTRINA_7)
<= 0

c_u_R1(SUPERTRINA_8)_:
+1 g(SUPERTRINA_8)
-20.240137199999999 u(SUPERTRINA_8)
<= 0

c_u_R1(SUPERTRINA_9)_:
+1 g(SUPERTRINA_9)
-18.259804875789058 u(SUPERTRINA_9)
<= 0

c_u_R1(SUPERTRINA_10)_:
+1 g(SUPERTRINA_10)
-27.854728760435997 u(SUPERTRINA_10)
<= 0

c_u_R1(SUPERTRINA_11)_:
+1 g(SUPERTRINA_11)
-25.660800760639685 u(SUPERTRINA_11)
<= 0

c_u_R1(SUPERTRINA_12)_:
+1 g(SUPERTRINA_12)
-168.439108 u(SUPERTRINA_12)
<= 0

c_u_R1(SUPERTRINA_13)_:
+1 g(SUPERTRINA_13)
-151.97255559999999 u(SUPERTRINA_13)
<= 0

c_u_R1(SUPERTRINA_14)_:
+1 g(SUPERTRINA_14)
-306.00343040000001 u(SUPERTRINA_14)
<= 0

c_u_R1(SUPERTRINA_15)_:
+1 g(SUPERTRINA_15)
-220.24013720000002 u(SUPERTRINA_15)
<= 0

c_u_R1(SUPERTRINA_16)_:
+1 g(SUPERTRINA_16)
-73.070325999999994 u(SUPERTRINA_16)
<= 0

c_u_R1(SUPERTRINA_17)_:
+1 g(SUPERTRINA_17)
-87.135505999999992 u(SUPERTRINA_17)
<= 0

c_u_R1(SUPERTRINA_18)_:
+1 g(SUPERTRINA_18)
-74.442538400000004 u(SUPERTRINA_18)
<= 0

c_u_R1(SUPERTRINA_19)_:
+1 g(SUPERTRINA_19)
-3.0874783999999997 u(SUPERTRINA_19)
<= 0

c_u_R1(SUPERTRINA_20)_:
+1 g(SUPERTRINA_20)
<= 0

c_u_R1(SUPERTRINA_21)_:
+1 g(SUPERTRINA_21)
<= 0

c_u_R1(SUPERTRINA_22)_:
+1 g(SUPERTRINA_22)
<= 0

c_u_R1(SUPERTRINA_23)_:
+1 g(SUPERTRINA_23)
<= 0

c_u_R1(SUPERTRINA_24)_:
+1 g(SUPERTRINA_24)
<= 0

c_l_R2(FLORES4B_1)_:
+1 g(FLORES4B_1)
>= 0

c_l_R2(FLORES4B_2)_:
+1 g(FLORES4B_2)
>= 0

c_l_R2(FLORES4B_3)_:
+1 g(FLORES4B_3)
>= 0

c_l_R2(FLORES4B_4)_:
+1 g(FLORES4B_4)
>= 0

c_l_R2(FLORES4B_5)_:
+1 g(FLORES4B_5)
>= 0

c_l_R2(FLORES4B_6)_:
+1 g(FLORES4B_6)
>= 0

c_l_R2(FLORES4B_7)_:
+1 g(FLORES4B_7)
>= 0

c_l_R2(FLORES4B_8)_:
+1 g(FLORES4B_8)
>= 0

c_l_R2(FLORES4B_9)_:
+1 g(FLORES4B_9)
>= 0

c_l_R2(FLORES4B_10)_:
+1 g(FLORES4B_10)
>= 0

c_l_R2(FLORES4B_11)_:
+1 g(FLORES4B_11)
>= 0

c_l_R2(FLORES4B_12)_:
+1 g(FLORES4B_12)
>= 0

c_l_R2(FLORES4B_13)_:
+1 g(FLORES4B_13)
>= 0

c_l_R2(FLORES4B_14)_:
+1 g(FLORES4B_14)
>= 0

c_l_R2(FLORES4B_15)_:
+1 g(FLORES4B_15)
>= 0

c_l_R2(FLORES4B_16)_:
+1 g(FLORES4B_16)
>= 0

c_l_R2(FLORES4B_17)_:
+1 g(FLORES4B_17)
>= 0

c_l_R2(FLORES4B_18)_:
+1 g(FLORES4B_18)
>= 0

c_l_R2(FLORES4B_19)_:
+1 g(FLORES4B_19)
>= 0

c_l_R2(FLORES4B_20)_:
+1 g(FLORES4B_20)
>= 0

c_l_R2(FLORES4B_21)_:
+1 g(FLORES4B_21)
>= 0

c_l_R2(FLORES4B_22)_:
+1 g(FLORES4B_22)
>= 0

c_l_R2(FLORES4B_23)_:
+1 g(FLORES4B_23)
>= 0

c_l_R2(FLORES4B_24)_:
+1 g(FLORES4B_24)
>= 0

c_l_R2(GUAVIO_1)_:
+1 g(GUAVIO_1)
>= 0

c_l_R2(GUAVIO_2)_:
+1 g(GUAVIO_2)
>= 0

c_l_R2(GUAVIO_3)_:
+1 g(GUAVIO_3)
>= 0

c_l_R2(GUAVIO_4)_:
+1 g(GUAVIO_4)
>= 0

c_l_R2(GUAVIO_5)_:
+1 g(GUAVIO_5)
>= 0

c_l_R2(GUAVIO_6)_:
+1 g(GUAVIO_6)
>= 0

c_l_R2(GUAVIO_7)_:
+1 g(GUAVIO_7)
>= 0

c_l_R2(GUAVIO_8)_:
+1 g(GUAVIO_8)
>= 0

c_l_R2(GUAVIO_9)_:
+1 g(GUAVIO_9)
>= 0

c_l_R2(GUAVIO_10)_:
+1 g(GUAVIO_10)
>= 0

c_l_R2(GUAVIO_11)_:
+1 g(GUAVIO_11)
>= 0

c_l_R2(GUAVIO_12)_:
+1 g(GUAVIO_12)
>= 0

c_l_R2(GUAVIO_13)_:
+1 g(GUAVIO_13)
>= 0

c_l_R2(GUAVIO_14)_:
+1 g(GUAVIO_14)
>= 0

c_l_R2(GUAVIO_15)_:
+1 g(GUAVIO_15)
>= 0

c_l_R2(GUAVIO_16)_:
+1 g(GUAVIO_16)
>= 0

c_l_R2(GUAVIO_17)_:
+1 g(GUAVIO_17)
>= 0

c_l_R2(GUAVIO_18)_:
+1 g(GUAVIO_18)
>= 0

c_l_R2(GUAVIO_19)_:
+1 g(GUAVIO_19)
>= 0

c_l_R2(GUAVIO_20)_:
+1 g(GUAVIO_20)
>= 0

c_l_R2(GUAVIO_21)_:
+1 g(GUAVIO_21)
>= 0

c_l_R2(GUAVIO_22)_:
+1 g(GUAVIO_22)
>= 0

c_l_R2(GUAVIO_23)_:
+1 g(GUAVIO_23)
>= 0

c_l_R2(GUAVIO_24)_:
+1 g(GUAVIO_24)
>= 0

c_l_R2(PORCE3_1)_:
+1 g(PORCE3_1)
>= 0

c_l_R2(PORCE3_2)_:
+1 g(PORCE3_2)
>= 0

c_l_R2(PORCE3_3)_:
+1 g(PORCE3_3)
>= 0

c_l_R2(PORCE3_4)_:
+1 g(PORCE3_4)
>= 0

c_l_R2(PORCE3_5)_:
+1 g(PORCE3_5)
>= 0

c_l_R2(PORCE3_6)_:
+1 g(PORCE3_6)
>= 0

c_l_R2(PORCE3_7)_:
+1 g(PORCE3_7)
>= 0

c_l_R2(PORCE3_8)_:
+1 g(PORCE3_8)
>= 0

c_l_R2(PORCE3_9)_:
+1 g(PORCE3_9)
>= 0

c_l_R2(PORCE3_10)_:
+1 g(PORCE3_10)
>= 0

c_l_R2(PORCE3_11)_:
+1 g(PORCE3_11)
>= 0

c_l_R2(PORCE3_12)_:
+1 g(PORCE3_12)
>= 0

c_l_R2(PORCE3_13)_:
+1 g(PORCE3_13)
>= 0

c_l_R2(PORCE3_14)_:
+1 g(PORCE3_14)
>= 0

c_l_R2(PORCE3_15)_:
+1 g(PORCE3_15)
>= 0

c_l_R2(PORCE3_16)_:
+1 g(PORCE3_16)
>= 0

c_l_R2(PORCE3_17)_:
+1 g(PORCE3_17)
>= 0

c_l_R2(PORCE3_18)_:
+1 g(PORCE3_18)
>= 0

c_l_R2(PORCE3_19)_:
+1 g(PORCE3_19)
>= 0

c_l_R2(PORCE3_20)_:
+1 g(PORCE3_20)
>= 0

c_l_R2(PORCE3_21)_:
+1 g(PORCE3_21)
>= 0

c_l_R2(PORCE3_22)_:
+1 g(PORCE3_22)
>= 0

c_l_R2(PORCE3_23)_:
+1 g(PORCE3_23)
>= 0

c_l_R2(PORCE3_24)_:
+1 g(PORCE3_24)
>= 0

c_l_R2(SUPERTRINA_1)_:
+1 g(SUPERTRINA_1)
>= 0

c_l_R2(SUPERTRINA_2)_:
+1 g(SUPERTRINA_2)
>= 0

c_l_R2(SUPERTRINA_3)_:
+1 g(SUPERTRINA_3)
>= 0

c_l_R2(SUPERTRINA_4)_:
+1 g(SUPERTRINA_4)
>= 0

c_l_R2(SUPERTRINA_5)_:
+1 g(SUPERTRINA_5)
>= 0

c_l_R2(SUPERTRINA_6)_:
+1 g(SUPERTRINA_6)
>= 0

c_l_R2(SUPERTRINA_7)_:
+1 g(SUPERTRINA_7)
>= 0

c_l_R2(SUPERTRINA_8)_:
+1 g(SUPERTRINA_8)
>= 0

c_l_R2(SUPERTRINA_9)_:
+1 g(SUPERTRINA_9)
>= 0

c_l_R2(SUPERTRINA_10)_:
+1 g(SUPERTRINA_10)
>= 0

c_l_R2(SUPERTRINA_11)_:
+1 g(SUPERTRINA_11)
>= 0

c_l_R2(SUPERTRINA_12)_:
+1 g(SUPERTRINA_12)
>= 0

c_l_R2(SUPERTRINA_13)_:
+1 g(SUPERTRINA_13)
>= 0

c_l_R2(SUPERTRINA_14)_:
+1 g(SUPERTRINA_14)
>= 0

c_l_R2(SUPERTRINA_15)_:
+1 g(SUPERTRINA_15)
>= 0

c_l_R2(SUPERTRINA_16)_:
+1 g(SUPERTRINA_16)
>= 0

c_l_R2(SUPERTRINA_17)_:
+1 g(SUPERTRINA_17)
>= 0

c_l_R2(SUPERTRINA_18)_:
+1 g(SUPERTRINA_18)
>= 0

c_l_R2(SUPERTRINA_19)_:
+1 g(SUPERTRINA_19)
>= 0

c_l_R2(SUPERTRINA_20)_:
+1 g(SUPERTRINA_20)
>= 0

c_l_R2(SUPERTRINA_21)_:
+1 g(SUPERTRINA_21)
>= 0

c_l_R2(SUPERTRINA_22)_:
+1 g(SUPERTRINA_22)
>= 0

c_l_R2(SUPERTRINA_23)_:
+1 g(SUPERTRINA_23)
>= 0

c_l_R2(SUPERTRINA_24)_:
+1 g(SUPERTRINA_24)
>= 0

c_u_R4(FLORES4B_1)_:
-1 a(FLORES4B_1)
+1 p(FLORES4B_1)
+1 u(FLORES4B_1)
<= 0

c_u_R4(FLORES4B_2)_:
-1 a(FLORES4B_2)
+1 p(FLORES4B_2)
-1 u(FLORES4B_1)
+1 u(FLORES4B_2)
<= 0

c_u_R4(FLORES4B_3)_:
-1 a(FLORES4B_3)
+1 p(FLORES4B_3)
-1 u(FLORES4B_2)
+1 u(FLORES4B_3)
<= 0

c_u_R4(FLORES4B_4)_:
-1 a(FLORES4B_4)
+1 p(FLORES4B_4)
-1 u(FLORES4B_3)
+1 u(FLORES4B_4)
<= 0

c_u_R4(FLORES4B_5)_:
-1 a(FLORES4B_5)
+1 p(FLORES4B_5)
-1 u(FLORES4B_4)
+1 u(FLORES4B_5)
<= 0

c_u_R4(FLORES4B_6)_:
-1 a(FLORES4B_6)
+1 p(FLORES4B_6)
-1 u(FLORES4B_5)
+1 u(FLORES4B_6)
<= 0

c_u_R4(FLORES4B_7)_:
-1 a(FLORES4B_7)
+1 p(FLORES4B_7)
-1 u(FLORES4B_6)
+1 u(FLORES4B_7)
<= 0

c_u_R4(FLORES4B_8)_:
-1 a(FLORES4B_8)
+1 p(FLORES4B_8)
-1 u(FLORES4B_7)
+1 u(FLORES4B_8)
<= 0

c_u_R4(FLORES4B_9)_:
-1 a(FLORES4B_9)
+1 p(FLORES4B_9)
-1 u(FLORES4B_8)
+1 u(FLORES4B_9)
<= 0

c_u_R4(FLORES4B_10)_:
-1 a(FLORES4B_10)
+1 p(FLORES4B_10)
+1 u(FLORES4B_10)
-1 u(FLORES4B_9)
<= 0

c_u_R4(FLORES4B_11)_:
-1 a(FLORES4B_11)
+1 p(FLORES4B_11)
-1 u(FLORES4B_10)
+1 u(FLORES4B_11)
<= 0

c_u_R4(FLORES4B_12)_:
-1 a(FLORES4B_12)
+1 p(FLORES4B_12)
-1 u(FLORES4B_11)
+1 u(FLORES4B_12)
<= 0

c_u_R4(FLORES4B_13)_:
-1 a(FLORES4B_13)
+1 p(FLORES4B_13)
-1 u(FLORES4B_12)
+1 u(FLORES4B_13)
<= 0

c_u_R4(FLORES4B_14)_:
-1 a(FLORES4B_14)
+1 p(FLORES4B_14)
-1 u(FLORES4B_13)
+1 u(FLORES4B_14)
<= 0

c_u_R4(FLORES4B_15)_:
-1 a(FLORES4B_15)
+1 p(FLORES4B_15)
-1 u(FLORES4B_14)
+1 u(FLORES4B_15)
<= 0

c_u_R4(FLORES4B_16)_:
-1 a(FLORES4B_16)
+1 p(FLORES4B_16)
-1 u(FLORES4B_15)
+1 u(FLORES4B_16)
<= 0

c_u_R4(FLORES4B_17)_:
-1 a(FLORES4B_17)
+1 p(FLORES4B_17)
-1 u(FLORES4B_16)
+1 u(FLORES4B_17)
<= 0

c_u_R4(FLORES4B_18)_:
-1 a(FLORES4B_18)
+1 p(FLORES4B_18)
-1 u(FLORES4B_17)
+1 u(FLORES4B_18)
<= 0

c_u_R4(FLORES4B_19)_:
-1 a(FLORES4B_19)
+1 p(FLORES4B_19)
-1 u(FLORES4B_18)
+1 u(FLORES4B_19)
<= 0

c_u_R4(FLORES4B_20)_:
-1 a(FLORES4B_20)
+1 p(FLORES4B_20)
-1 u(FLORES4B_19)
+1 u(FLORES4B_20)
<= 0

c_u_R4(FLORES4B_21)_:
-1 a(FLORES4B_21)
+1 p(FLORES4B_21)
-1 u(FLORES4B_20)
+1 u(FLORES4B_21)
<= 0

c_u_R4(FLORES4B_22)_:
-1 a(FLORES4B_22)
+1 p(FLORES4B_22)
-1 u(FLORES4B_21)
+1 u(FLORES4B_22)
<= 0

c_u_R4(FLORES4B_23)_:
-1 a(FLORES4B_23)
+1 p(FLORES4B_23)
-1 u(FLORES4B_22)
+1 u(FLORES4B_23)
<= 0

c_u_R4(FLORES4B_24)_:
-1 a(FLORES4B_24)
+1 p(FLORES4B_24)
-1 u(FLORES4B_23)
+1 u(FLORES4B_24)
<= 0

c_u_R5(FLORES4B_1)_:
+1 a(FLORES4B_1)
+1 p(FLORES4B_1)
<= 1

c_u_R5(FLORES4B_2)_:
+1 a(FLORES4B_2)
+1 p(FLORES4B_2)
<= 1

c_u_R5(FLORES4B_3)_:
+1 a(FLORES4B_3)
+1 p(FLORES4B_3)
<= 1

c_u_R5(FLORES4B_4)_:
+1 a(FLORES4B_4)
+1 p(FLORES4B_4)
<= 1

c_u_R5(FLORES4B_5)_:
+1 a(FLORES4B_5)
+1 p(FLORES4B_5)
<= 1

c_u_R5(FLORES4B_6)_:
+1 a(FLORES4B_6)
+1 p(FLORES4B_6)
<= 1

c_u_R5(FLORES4B_7)_:
+1 a(FLORES4B_7)
+1 p(FLORES4B_7)
<= 1

c_u_R5(FLORES4B_8)_:
+1 a(FLORES4B_8)
+1 p(FLORES4B_8)
<= 1

c_u_R5(FLORES4B_9)_:
+1 a(FLORES4B_9)
+1 p(FLORES4B_9)
<= 1

c_u_R5(FLORES4B_10)_:
+1 a(FLORES4B_10)
+1 p(FLORES4B_10)
<= 1

c_u_R5(FLORES4B_11)_:
+1 a(FLORES4B_11)
+1 p(FLORES4B_11)
<= 1

c_u_R5(FLORES4B_12)_:
+1 a(FLORES4B_12)
+1 p(FLORES4B_12)
<= 1

c_u_R5(FLORES4B_13)_:
+1 a(FLORES4B_13)
+1 p(FLORES4B_13)
<= 1

c_u_R5(FLORES4B_14)_:
+1 a(FLORES4B_14)
+1 p(FLORES4B_14)
<= 1

c_u_R5(FLORES4B_15)_:
+1 a(FLORES4B_15)
+1 p(FLORES4B_15)
<= 1

c_u_R5(FLORES4B_16)_:
+1 a(FLORES4B_16)
+1 p(FLORES4B_16)
<= 1

c_u_R5(FLORES4B_17)_:
+1 a(FLORES4B_17)
+1 p(FLORES4B_17)
<= 1

c_u_R5(FLORES4B_18)_:
+1 a(FLORES4B_18)
+1 p(FLORES4B_18)
<= 1

c_u_R5(FLORES4B_19)_:
+1 a(FLORES4B_19)
+1 p(FLORES4B_19)
<= 1

c_u_R5(FLORES4B_20)_:
+1 a(FLORES4B_20)
+1 p(FLORES4B_20)
<= 1

c_u_R5(FLORES4B_21)_:
+1 a(FLORES4B_21)
+1 p(FLORES4B_21)
<= 1

c_u_R5(FLORES4B_22)_:
+1 a(FLORES4B_22)
+1 p(FLORES4B_22)
<= 1

c_u_R5(FLORES4B_23)_:
+1 a(FLORES4B_23)
+1 p(FLORES4B_23)
<= 1

c_u_R5(FLORES4B_24)_:
+1 a(FLORES4B_24)
+1 p(FLORES4B_24)
<= 1

c_u_R6(FLORES4B_1)_:
+1 g(FLORES4B_1)
<= 60

c_u_R6(FLORES4B_2)_:
-1 g(FLORES4B_1)
+1 g(FLORES4B_2)
<= 60

c_u_R6(FLORES4B_3)_:
-1 g(FLORES4B_2)
+1 g(FLORES4B_3)
<= 60

c_u_R6(FLORES4B_4)_:
-1 g(FLORES4B_3)
+1 g(FLORES4B_4)
<= 60

c_u_R6(FLORES4B_5)_:
-1 g(FLORES4B_4)
+1 g(FLORES4B_5)
<= 60

c_u_R6(FLORES4B_6)_:
-1 g(FLORES4B_5)
+1 g(FLORES4B_6)
<= 60

c_u_R6(FLORES4B_7)_:
-1 g(FLORES4B_6)
+1 g(FLORES4B_7)
<= 60

c_u_R6(FLORES4B_8)_:
-1 g(FLORES4B_7)
+1 g(FLORES4B_8)
<= 60

c_u_R6(FLORES4B_9)_:
-1 g(FLORES4B_8)
+1 g(FLORES4B_9)
<= 60

c_u_R6(FLORES4B_10)_:
+1 g(FLORES4B_10)
-1 g(FLORES4B_9)
<= 60

c_u_R6(FLORES4B_11)_:
-1 g(FLORES4B_10)
+1 g(FLORES4B_11)
<= 60

c_u_R6(FLORES4B_12)_:
-1 g(FLORES4B_11)
+1 g(FLORES4B_12)
<= 60

c_u_R6(FLORES4B_13)_:
-1 g(FLORES4B_12)
+1 g(FLORES4B_13)
<= 60

c_u_R6(FLORES4B_14)_:
-1 g(FLORES4B_13)
+1 g(FLORES4B_14)
<= 60

c_u_R6(FLORES4B_15)_:
-1 g(FLORES4B_14)
+1 g(FLORES4B_15)
<= 60

c_u_R6(FLORES4B_16)_:
-1 g(FLORES4B_15)
+1 g(FLORES4B_16)
<= 60

c_u_R6(FLORES4B_17)_:
-1 g(FLORES4B_16)
+1 g(FLORES4B_17)
<= 60

c_u_R6(FLORES4B_18)_:
-1 g(FLORES4B_17)
+1 g(FLORES4B_18)
<= 60

c_u_R6(FLORES4B_19)_:
-1 g(FLORES4B_18)
+1 g(FLORES4B_19)
<= 60

c_u_R6(FLORES4B_20)_:
-1 g(FLORES4B_19)
+1 g(FLORES4B_20)
<= 60

c_u_R6(FLORES4B_21)_:
-1 g(FLORES4B_20)
+1 g(FLORES4B_21)
<= 60

c_u_R6(FLORES4B_22)_:
-1 g(FLORES4B_21)
+1 g(FLORES4B_22)
<= 60

c_u_R6(FLORES4B_23)_:
-1 g(FLORES4B_22)
+1 g(FLORES4B_23)
<= 60

c_u_R6(FLORES4B_24)_:
-1 g(FLORES4B_23)
+1 g(FLORES4B_24)
<= 60

c_u_R7(FLORES4B_1)_:
-1 g(FLORES4B_1)
<= 60

c_u_R7(FLORES4B_2)_:
+1 g(FLORES4B_1)
-1 g(FLORES4B_2)
<= 60

c_u_R7(FLORES4B_3)_:
+1 g(FLORES4B_2)
-1 g(FLORES4B_3)
<= 60

c_u_R7(FLORES4B_4)_:
+1 g(FLORES4B_3)
-1 g(FLORES4B_4)
<= 60

c_u_R7(FLORES4B_5)_:
+1 g(FLORES4B_4)
-1 g(FLORES4B_5)
<= 60

c_u_R7(FLORES4B_6)_:
+1 g(FLORES4B_5)
-1 g(FLORES4B_6)
<= 60

c_u_R7(FLORES4B_7)_:
+1 g(FLORES4B_6)
-1 g(FLORES4B_7)
<= 60

c_u_R7(FLORES4B_8)_:
+1 g(FLORES4B_7)
-1 g(FLORES4B_8)
<= 60

c_u_R7(FLORES4B_9)_:
+1 g(FLORES4B_8)
-1 g(FLORES4B_9)
<= 60

c_u_R7(FLORES4B_10)_:
-1 g(FLORES4B_10)
+1 g(FLORES4B_9)
<= 60

c_u_R7(FLORES4B_11)_:
+1 g(FLORES4B_10)
-1 g(FLORES4B_11)
<= 60

c_u_R7(FLORES4B_12)_:
+1 g(FLORES4B_11)
-1 g(FLORES4B_12)
<= 60

c_u_R7(FLORES4B_13)_:
+1 g(FLORES4B_12)
-1 g(FLORES4B_13)
<= 60

c_u_R7(FLORES4B_14)_:
+1 g(FLORES4B_13)
-1 g(FLORES4B_14)
<= 60

c_u_R7(FLORES4B_15)_:
+1 g(FLORES4B_14)
-1 g(FLORES4B_15)
<= 60

c_u_R7(FLORES4B_16)_:
+1 g(FLORES4B_15)
-1 g(FLORES4B_16)
<= 60

c_u_R7(FLORES4B_17)_:
+1 g(FLORES4B_16)
-1 g(FLORES4B_17)
<= 60

c_u_R7(FLORES4B_18)_:
+1 g(FLORES4B_17)
-1 g(FLORES4B_18)
<= 60

c_u_R7(FLORES4B_19)_:
+1 g(FLORES4B_18)
-1 g(FLORES4B_19)
<= 60

c_u_R7(FLORES4B_20)_:
+1 g(FLORES4B_19)
-1 g(FLORES4B_20)
<= 60

c_u_R7(FLORES4B_21)_:
+1 g(FLORES4B_20)
-1 g(FLORES4B_21)
<= 60

c_u_R7(FLORES4B_22)_:
+1 g(FLORES4B_21)
-1 g(FLORES4B_22)
<= 60

c_u_R7(FLORES4B_23)_:
+1 g(FLORES4B_22)
-1 g(FLORES4B_23)
<= 60

c_u_R7(FLORES4B_24)_:
+1 g(FLORES4B_23)
-1 g(FLORES4B_24)
<= 60

c_u_R8(FLORES4B_4)_:
+1 a(FLORES4B_21)
+1 a(FLORES4B_22)
+1 a(FLORES4B_23)
-1 u(FLORES4B_4)
<= 0

c_u_R8(FLORES4B_5)_:
+1 a(FLORES4B_21)
+1 a(FLORES4B_22)
+1 a(FLORES4B_23)
-1 u(FLORES4B_5)
<= 0

c_u_R8(FLORES4B_6)_:
+1 a(FLORES4B_21)
+1 a(FLORES4B_22)
+1 a(FLORES4B_23)
-1 u(FLORES4B_6)
<= 0

c_u_R8(FLORES4B_7)_:
+1 a(FLORES4B_21)
+1 a(FLORES4B_22)
+1 a(FLORES4B_23)
-1 u(FLORES4B_7)
<= 0

c_u_R8(FLORES4B_8)_:
+1 a(FLORES4B_21)
+1 a(FLORES4B_22)
+1 a(FLORES4B_23)
-1 u(FLORES4B_8)
<= 0

c_u_R8(FLORES4B_9)_:
+1 a(FLORES4B_21)
+1 a(FLORES4B_22)
+1 a(FLORES4B_23)
-1 u(FLORES4B_9)
<= 0

c_u_R8(FLORES4B_10)_:
+1 a(FLORES4B_21)
+1 a(FLORES4B_22)
+1 a(FLORES4B_23)
-1 u(FLORES4B_10)
<= 0

c_u_R8(FLORES4B_11)_:
+1 a(FLORES4B_21)
+1 a(FLORES4B_22)
+1 a(FLORES4B_23)
-1 u(FLORES4B_11)
<= 0

c_u_R8(FLORES4B_12)_:
+1 a(FLORES4B_21)
+1 a(FLORES4B_22)
+1 a(FLORES4B_23)
-1 u(FLORES4B_12)
<= 0

c_u_R8(FLORES4B_13)_:
+1 a(FLORES4B_21)
+1 a(FLORES4B_22)
+1 a(FLORES4B_23)
-1 u(FLORES4B_13)
<= 0

c_u_R8(FLORES4B_14)_:
+1 a(FLORES4B_21)
+1 a(FLORES4B_22)
+1 a(FLORES4B_23)
-1 u(FLORES4B_14)
<= 0

c_u_R8(FLORES4B_15)_:
+1 a(FLORES4B_21)
+1 a(FLORES4B_22)
+1 a(FLORES4B_23)
-1 u(FLORES4B_15)
<= 0

c_u_R8(FLORES4B_16)_:
+1 a(FLORES4B_21)
+1 a(FLORES4B_22)
+1 a(FLORES4B_23)
-1 u(FLORES4B_16)
<= 0

c_u_R8(FLORES4B_17)_:
+1 a(FLORES4B_21)
+1 a(FLORES4B_22)
+1 a(FLORES4B_23)
-1 u(FLORES4B_17)
<= 0

c_u_R8(FLORES4B_18)_:
+1 a(FLORES4B_21)
+1 a(FLORES4B_22)
+1 a(FLORES4B_23)
-1 u(FLORES4B_18)
<= 0

c_u_R8(FLORES4B_19)_:
+1 a(FLORES4B_21)
+1 a(FLORES4B_22)
+1 a(FLORES4B_23)
-1 u(FLORES4B_19)
<= 0

c_u_R8(FLORES4B_20)_:
+1 a(FLORES4B_21)
+1 a(FLORES4B_22)
+1 a(FLORES4B_23)
-1 u(FLORES4B_20)
<= 0

c_u_R8(FLORES4B_21)_:
+1 a(FLORES4B_21)
+1 a(FLORES4B_22)
+1 a(FLORES4B_23)
-1 u(FLORES4B_21)
<= 0

c_u_R8(FLORES4B_22)_:
+1 a(FLORES4B_21)
+1 a(FLORES4B_22)
+1 a(FLORES4B_23)
-1 u(FLORES4B_22)
<= 0

c_u_R8(FLORES4B_23)_:
+1 a(FLORES4B_21)
+1 a(FLORES4B_22)
+1 a(FLORES4B_23)
-1 u(FLORES4B_23)
<= 0

c_u_R8(FLORES4B_24)_:
+1 a(FLORES4B_21)
+1 a(FLORES4B_22)
+1 a(FLORES4B_23)
-1 u(FLORES4B_24)
<= 0

c_u_R9(FLORES4B_4)_:
+1 p(FLORES4B_21)
+1 p(FLORES4B_22)
+1 p(FLORES4B_23)
+1 u(FLORES4B_4)
<= 1

c_u_R9(FLORES4B_5)_:
+1 p(FLORES4B_21)
+1 p(FLORES4B_22)
+1 p(FLORES4B_23)
+1 u(FLORES4B_5)
<= 1

c_u_R9(FLORES4B_6)_:
+1 p(FLORES4B_21)
+1 p(FLORES4B_22)
+1 p(FLORES4B_23)
+1 u(FLORES4B_6)
<= 1

c_u_R9(FLORES4B_7)_:
+1 p(FLORES4B_21)
+1 p(FLORES4B_22)
+1 p(FLORES4B_23)
+1 u(FLORES4B_7)
<= 1

c_u_R9(FLORES4B_8)_:
+1 p(FLORES4B_21)
+1 p(FLORES4B_22)
+1 p(FLORES4B_23)
+1 u(FLORES4B_8)
<= 1

c_u_R9(FLORES4B_9)_:
+1 p(FLORES4B_21)
+1 p(FLORES4B_22)
+1 p(FLORES4B_23)
+1 u(FLORES4B_9)
<= 1

c_u_R9(FLORES4B_10)_:
+1 p(FLORES4B_21)
+1 p(FLORES4B_22)
+1 p(FLORES4B_23)
+1 u(FLORES4B_10)
<= 1

c_u_R9(FLORES4B_11)_:
+1 p(FLORES4B_21)
+1 p(FLORES4B_22)
+1 p(FLORES4B_23)
+1 u(FLORES4B_11)
<= 1

c_u_R9(FLORES4B_12)_:
+1 p(FLORES4B_21)
+1 p(FLORES4B_22)
+1 p(FLORES4B_23)
+1 u(FLORES4B_12)
<= 1

c_u_R9(FLORES4B_13)_:
+1 p(FLORES4B_21)
+1 p(FLORES4B_22)
+1 p(FLORES4B_23)
+1 u(FLORES4B_13)
<= 1

c_u_R9(FLORES4B_14)_:
+1 p(FLORES4B_21)
+1 p(FLORES4B_22)
+1 p(FLORES4B_23)
+1 u(FLORES4B_14)
<= 1

c_u_R9(FLORES4B_15)_:
+1 p(FLORES4B_21)
+1 p(FLORES4B_22)
+1 p(FLORES4B_23)
+1 u(FLORES4B_15)
<= 1

c_u_R9(FLORES4B_16)_:
+1 p(FLORES4B_21)
+1 p(FLORES4B_22)
+1 p(FLORES4B_23)
+1 u(FLORES4B_16)
<= 1

c_u_R9(FLORES4B_17)_:
+1 p(FLORES4B_21)
+1 p(FLORES4B_22)
+1 p(FLORES4B_23)
+1 u(FLORES4B_17)
<= 1

c_u_R9(FLORES4B_18)_:
+1 p(FLORES4B_21)
+1 p(FLORES4B_22)
+1 p(FLORES4B_23)
+1 u(FLORES4B_18)
<= 1

c_u_R9(FLORES4B_19)_:
+1 p(FLORES4B_21)
+1 p(FLORES4B_22)
+1 p(FLORES4B_23)
+1 u(FLORES4B_19)
<= 1

c_u_R9(FLORES4B_20)_:
+1 p(FLORES4B_21)
+1 p(FLORES4B_22)
+1 p(FLORES4B_23)
+1 u(FLORES4B_20)
<= 1

c_u_R9(FLORES4B_21)_:
+1 p(FLORES4B_21)
+1 p(FLORES4B_22)
+1 p(FLORES4B_23)
+1 u(FLORES4B_21)
<= 1

c_u_R9(FLORES4B_22)_:
+1 p(FLORES4B_21)
+1 p(FLORES4B_22)
+1 p(FLORES4B_23)
+1 u(FLORES4B_22)
<= 1

c_u_R9(FLORES4B_23)_:
+1 p(FLORES4B_21)
+1 p(FLORES4B_22)
+1 p(FLORES4B_23)
+1 u(FLORES4B_23)
<= 1

c_u_R9(FLORES4B_24)_:
+1 p(FLORES4B_21)
+1 p(FLORES4B_22)
+1 p(FLORES4B_23)
+1 u(FLORES4B_24)
<= 1

c_u_R10(FLORES4B)_:
+1 a(FLORES4B_1)
+1 a(FLORES4B_10)
+1 a(FLORES4B_11)
+1 a(FLORES4B_12)
+1 a(FLORES4B_13)
+1 a(FLORES4B_14)
+1 a(FLORES4B_15)
+1 a(FLORES4B_16)
+1 a(FLORES4B_17)
+1 a(FLORES4B_18)
+1 a(FLORES4B_19)
+1 a(FLORES4B_2)
+1 a(FLORES4B_20)
+1 a(FLORES4B_21)
+1 a(FLORES4B_22)
+1 a(FLORES4B_23)
+1 a(FLORES4B_24)
+1 a(FLORES4B_3)
+1 a(FLORES4B_4)
+1 a(FLORES4B_5)
+1 a(FLORES4B_6)
+1 a(FLORES4B_7)
+1 a(FLORES4B_8)
+1 a(FLORES4B_9)
<= 1

c_e_R11(1)_:
+1 g(FLORES4B_1)
+1 g(GUAVIO_1)
+1 g(PORCE3_1)
+1 g(SUPERTRINA_1)
+1 r(1)
= 1524.97534

c_e_R11(2)_:
+1 g(FLORES4B_2)
+1 g(GUAVIO_2)
+1 g(PORCE3_2)
+1 g(SUPERTRINA_2)
+1 r(2)
= 1475.2548200000001

c_e_R11(3)_:
+1 g(FLORES4B_3)
+1 g(GUAVIO_3)
+1 g(PORCE3_3)
+1 g(SUPERTRINA_3)
+1 r(3)
= 1441.0367800000001

c_e_R11(4)_:
+1 g(FLORES4B_4)
+1 g(GUAVIO_4)
+1 g(PORCE3_4)
+1 g(SUPERTRINA_4)
+1 r(4)
= 1425.41318

c_e_R11(5)_:
+1 g(FLORES4B_5)
+1 g(GUAVIO_5)
+1 g(PORCE3_5)
+1 g(SUPERTRINA_5)
+1 r(5)
= 1459.7426800000001

c_e_R11(6)_:
+1 g(FLORES4B_6)
+1 g(GUAVIO_6)
+1 g(PORCE3_6)
+1 g(SUPERTRINA_6)
+1 r(6)
= 1563.6685

c_e_R11(7)_:
+1 g(FLORES4B_7)
+1 g(GUAVIO_7)
+1 g(PORCE3_7)
+1 g(SUPERTRINA_7)
+1 r(7)
= 1596.80386

c_e_R11(8)_:
+1 g(FLORES4B_8)
+1 g(GUAVIO_8)
+1 g(PORCE3_8)
+1 g(SUPERTRINA_8)
+1 r(8)
= 1663.1167600000001

c_e_R11(9)_:
+1 g(FLORES4B_9)
+1 g(GUAVIO_9)
+1 g(PORCE3_9)
+1 g(SUPERTRINA_9)
+1 r(9)
= 1756.8769600000001

c_e_R11(10)_:
+1 g(FLORES4B_10)
+1 g(GUAVIO_10)
+1 g(PORCE3_10)
+1 g(SUPERTRINA_10)
+1 r(10)
= 1821.2328200000002

c_e_R11(11)_:
+1 g(FLORES4B_11)
+1 g(GUAVIO_11)
+1 g(PORCE3_11)
+1 g(SUPERTRINA_11)
+1 r(11)
= 1889.0184600000002

c_e_R11(12)_:
+1 g(FLORES4B_12)
+1 g(GUAVIO_12)
+1 g(PORCE3_12)
+1 g(SUPERTRINA_12)
+1 r(12)
= 1949.2778600000001

c_e_R11(13)_:
+1 g(FLORES4B_13)
+1 g(GUAVIO_13)
+1 g(PORCE3_13)
+1 g(SUPERTRINA_13)
+1 r(13)
= 1927.0797600000003

c_e_R11(14)_:
+1 g(FLORES4B_14)
+1 g(GUAVIO_14)
+1 g(PORCE3_14)
+1 g(SUPERTRINA_14)
+1 r(14)
= 1957.3852400000001

c_e_R11(15)_:
+1 g(FLORES4B_15)
+1 g(GUAVIO_15)
+1 g(PORCE3_15)
+1 g(SUPERTRINA_15)
+1 r(15)
= 1991.3490200000001

c_e_R11(16)_:
+1 g(FLORES4B_16)
+1 g(GUAVIO_16)
+1 g(PORCE3_16)
+1 g(SUPERTRINA_16)
+1 r(16)
= 1994.7634600000001

c_e_R11(17)_:
+1 g(FLORES4B_17)
+1 g(GUAVIO_17)
+1 g(PORCE3_17)
+1 g(SUPERTRINA_17)
+1 r(17)
= 1966.4578000000001

c_e_R11(18)_:
+1 g(FLORES4B_18)
+1 g(GUAVIO_18)
+1 g(PORCE3_18)
+1 g(SUPERTRINA_18)
+1 r(18)
= 1906.76332

c_e_R11(19)_:
+1 g(FLORES4B_19)
+1 g(GUAVIO_19)
+1 g(PORCE3_19)
+1 g(SUPERTRINA_19)
+1 r(19)
= 2015.6097600000003

c_e_R11(20)_:
+1 g(FLORES4B_20)
+1 g(GUAVIO_20)
+1 g(PORCE3_20)
+1 g(SUPERTRINA_20)
+1 r(20)
= 2069.6590800000004

c_e_R11(21)_:
+1 g(FLORES4B_21)
+1 g(GUAVIO_21)
+1 g(PORCE3_21)
+1 g(SUPERTRINA_21)
+1 r(21)
= 2010.03818

c_e_R11(22)_:
+1 g(FLORES4B_22)
+1 g(GUAVIO_22)
+1 g(PORCE3_22)
+1 g(SUPERTRINA_22)
+1 r(22)
= 1904.7760800000001

c_e_R11(23)_:
+1 g(FLORES4B_23)
+1 g(GUAVIO_23)
+1 g(PORCE3_23)
+1 g(SUPERTRINA_23)
+1 r(23)
= 1779.5995800000001

c_e_R11(24)_:
+1 g(FLORES4B_24)
+1 g(GUAVIO_24)
+1 g(PORCE3_24)
+1 g(SUPERTRINA_24)
+1 r(24)
= 1646.4198200000001

c_e_ONE_VAR_CONSTANT: 
ONE_VAR_CONSTANT = 1.0

bounds
   0 <= g(FLORES4B_1) <= +inf
   0 <= g(FLORES4B_2) <= +inf
   0 <= g(FLORES4B_3) <= +inf
   0 <= g(FLORES4B_4) <= +inf
   0 <= g(FLORES4B_5) <= +inf
   0 <= g(FLORES4B_6) <= +inf
   0 <= g(FLORES4B_7) <= +inf
   0 <= g(FLORES4B_8) <= +inf
   0 <= g(FLORES4B_9) <= +inf
   0 <= g(FLORES4B_10) <= +inf
   0 <= g(FLORES4B_11) <= +inf
   0 <= g(FLORES4B_12) <= +inf
   0 <= g(FLORES4B_13) <= +inf
   0 <= g(FLORES4B_14) <= +inf
   0 <= g(FLORES4B_15) <= +inf
   0 <= g(FLORES4B_16) <= +inf
   0 <= g(FLORES4B_17) <= +inf
   0 <= g(FLORES4B_18) <= +inf
   0 <= g(FLORES4B_19) <= +inf
   0 <= g(FLORES4B_20) <= +inf
   0 <= g(FLORES4B_21) <= +inf
   0 <= g(FLORES4B_22) <= +inf
   0 <= g(FLORES4B_23) <= +inf
   0 <= g(FLORES4B_24) <= +inf
   0 <= g(GUAVIO_1) <= +inf
   0 <= g(GUAVIO_2) <= +inf
   0 <= g(GUAVIO_3) <= +inf
   0 <= g(GUAVIO_4) <= +inf
   0 <= g(GUAVIO_5) <= +inf
   0 <= g(GUAVIO_6) <= +inf
   0 <= g(GUAVIO_7) <= +inf
   0 <= g(GUAVIO_8) <= +inf
   0 <= g(GUAVIO_9) <= +inf
   0 <= g(GUAVIO_10) <= +inf
   0 <= g(GUAVIO_11) <= +inf
   0 <= g(GUAVIO_12) <= +inf
   0 <= g(GUAVIO_13) <= +inf
   0 <= g(GUAVIO_14) <= +inf
   0 <= g(GUAVIO_15) <= +inf
   0 <= g(GUAVIO_16) <= +inf
   0 <= g(GUAVIO_17) <= +inf
   0 <= g(GUAVIO_18) <= +inf
   0 <= g(GUAVIO_19) <= +inf
   0 <= g(GUAVIO_20) <= +inf
   0 <= g(GUAVIO_21) <= +inf
   0 <= g(GUAVIO_22) <= +inf
   0 <= g(GUAVIO_23) <= +inf
   0 <= g(GUAVIO_24) <= +inf
   0 <= g(PORCE3_1) <= +inf
   0 <= g(PORCE3_2) <= +inf
   0 <= g(PORCE3_3) <= +inf
   0 <= g(PORCE3_4) <= +inf
   0 <= g(PORCE3_5) <= +inf
   0 <= g(PORCE3_6) <= +inf
   0 <= g(PORCE3_7) <= +inf
   0 <= g(PORCE3_8) <= +inf
   0 <= g(PORCE3_9) <= +inf
   0 <= g(PORCE3_10) <= +inf
   0 <= g(PORCE3_11) <= +inf
   0 <= g(PORCE3_12) <= +inf
   0 <= g(PORCE3_13) <= +inf
   0 <= g(PORCE3_14) <= +inf
   0 <= g(PORCE3_15) <= +inf
   0 <= g(PORCE3_16) <= +inf
   0 <= g(PORCE3_17) <= +inf
   0 <= g(PORCE3_18) <= +inf
   0 <= g(PORCE3_19) <= +inf
   0 <= g(PORCE3_20) <= +inf
   0 <= g(PORCE3_21) <= +inf
   0 <= g(PORCE3_22) <= +inf
   0 <= g(PORCE3_23) <= +inf
   0 <= g(PORCE3_24) <= +inf
   0 <= g(SUPERTRINA_1) <= +inf
   0 <= g(SUPERTRINA_2) <= +inf
   0 <= g(SUPERTRINA_3) <= +inf
   0 <= g(SUPERTRINA_4) <= +inf
   0 <= g(SUPERTRINA_5) <= +inf
   0 <= g(SUPERTRINA_6) <= +inf
   0 <= g(SUPERTRINA_7) <= +inf
   0 <= g(SUPERTRINA_8) <= +inf
   0 <= g(SUPERTRINA_9) <= +inf
   0 <= g(SUPERTRINA_10) <= +inf
   0 <= g(SUPERTRINA_11) <= +inf
   0 <= g(SUPERTRINA_12) <= +inf
   0 <= g(SUPERTRINA_13) <= +inf
   0 <= g(SUPERTRINA_14) <= +inf
   0 <= g(SUPERTRINA_15) <= +inf
   0 <= g(SUPERTRINA_16) <= +inf
   0 <= g(SUPERTRINA_17) <= +inf
   0 <= g(SUPERTRINA_18) <= +inf
   0 <= g(SUPERTRINA_19) <= +inf
   0 <= g(SUPERTRINA_20) <= +inf
   0 <= g(SUPERTRINA_21) <= +inf
   0 <= g(SUPERTRINA_22) <= +inf
   0 <= g(SUPERTRINA_23) <= +inf
   0 <= g(SUPERTRINA_24) <= +inf
   0 <= r(1) <= +inf
   0 <= r(2) <= +inf
   0 <= r(3) <= +inf
   0 <= r(4) <= +inf
   0 <= r(5) <= +inf
   0 <= r(6) <= +inf
   0 <= r(7) <= +inf
   0 <= r(8) <= +inf
   0 <= r(9) <= +inf
   0 <= r(10) <= +inf
   0 <= r(11) <= +inf
   0 <= r(12) <= +inf
   0 <= r(13) <= +inf
   0 <= r(14) <= +inf
   0 <= r(15) <= +inf
   0 <= r(16) <= +inf
   0 <= r(17) <= +inf
   0 <= r(18) <= +inf
   0 <= r(19) <= +inf
   0 <= r(20) <= +inf
   0 <= r(21) <= +inf
   0 <= r(22) <= +inf
   0 <= r(23) <= +inf
   0 <= r(24) <= +inf
   0 <= u(FLORES4B_1) <= 1
   0 <= u(FLORES4B_2) <= 1
   0 <= u(FLORES4B_3) <= 1
   0 <= u(FLORES4B_4) <= 1
   0 <= u(FLORES4B_5) <= 1
   0 <= u(FLORES4B_6) <= 1
   0 <= u(FLORES4B_7) <= 1
   0 <= u(FLORES4B_8) <= 1
   0 <= u(FLORES4B_9) <= 1
   0 <= u(FLORES4B_10) <= 1
   0 <= u(FLORES4B_11) <= 1
   0 <= u(FLORES4B_12) <= 1
   0 <= u(FLORES4B_13) <= 1
   0 <= u(FLORES4B_14) <= 1
   0 <= u(FLORES4B_15) <= 1
   0 <= u(FLORES4B_16) <= 1
   0 <= u(FLORES4B_17) <= 1
   0 <= u(FLORES4B_18) <= 1
   0 <= u(FLORES4B_19) <= 1
   0 <= u(FLORES4B_20) <= 1
   0 <= u(FLORES4B_21) <= 1
   0 <= u(FLORES4B_22) <= 1
   0 <= u(FLORES4B_23) <= 1
   0 <= u(FLORES4B_24) <= 1
   0 <= u(GUAVIO_1) <= 1
   0 <= u(GUAVIO_2) <= 1
   0 <= u(GUAVIO_3) <= 1
   0 <= u(GUAVIO_4) <= 1
   0 <= u(GUAVIO_5) <= 1
   0 <= u(GUAVIO_6) <= 1
   0 <= u(GUAVIO_7) <= 1
   0 <= u(GUAVIO_8) <= 1
   0 <= u(GUAVIO_9) <= 1
   0 <= u(GUAVIO_10) <= 1
   0 <= u(GUAVIO_11) <= 1
   0 <= u(GUAVIO_12) <= 1
   0 <= u(GUAVIO_13) <= 1
   0 <= u(GUAVIO_14) <= 1
   0 <= u(GUAVIO_15) <= 1
   0 <= u(GUAVIO_16) <= 1
   0 <= u(GUAVIO_17) <= 1
   0 <= u(GUAVIO_18) <= 1
   0 <= u(GUAVIO_19) <= 1
   0 <= u(GUAVIO_20) <= 1
   0 <= u(GUAVIO_21) <= 1
   0 <= u(GUAVIO_22) <= 1
   0 <= u(GUAVIO_23) <= 1
   0 <= u(GUAVIO_24) <= 1
   0 <= u(PORCE3_1) <= 1
   0 <= u(PORCE3_2) <= 1
   0 <= u(PORCE3_3) <= 1
   0 <= u(PORCE3_4) <= 1
   0 <= u(PORCE3_5) <= 1
   0 <= u(PORCE3_6) <= 1
   0 <= u(PORCE3_7) <= 1
   0 <= u(PORCE3_8) <= 1
   0 <= u(PORCE3_9) <= 1
   0 <= u(PORCE3_10) <= 1
   0 <= u(PORCE3_11) <= 1
   0 <= u(PORCE3_12) <= 1
   0 <= u(PORCE3_13) <= 1
   0 <= u(PORCE3_14) <= 1
   0 <= u(PORCE3_15) <= 1
   0 <= u(PORCE3_16) <= 1
   0 <= u(PORCE3_17) <= 1
   0 <= u(PORCE3_18) <= 1
   0 <= u(PORCE3_19) <= 1
   0 <= u(PORCE3_20) <= 1
   0 <= u(PORCE3_21) <= 1
   0 <= u(PORCE3_22) <= 1
   0 <= u(PORCE3_23) <= 1
   0 <= u(PORCE3_24) <= 1
   0 <= u(SUPERTRINA_8) <= 1
   0 <= u(SUPERTRINA_9) <= 1
   0 <= u(SUPERTRINA_10) <= 1
   0 <= u(SUPERTRINA_11) <= 1
   0 <= u(SUPERTRINA_12) <= 1
   0 <= u(SUPERTRINA_13) <= 1
   0 <= u(SUPERTRINA_14) <= 1
   0 <= u(SUPERTRINA_15) <= 1
   0 <= u(SUPERTRINA_16) <= 1
   0 <= u(SUPERTRINA_17) <= 1
   0 <= u(SUPERTRINA_18) <= 1
   0 <= u(SUPERTRINA_19) <= 1
   0 <= a(FLORES4B_1) <= 1
   0 <= a(FLORES4B_2) <= 1
   0 <= a(FLORES4B_3) <= 1
   0 <= a(FLORES4B_4) <= 1
   0 <= a(FLORES4B_5) <= 1
   0 <= a(FLORES4B_6) <= 1
   0 <= a(FLORES4B_7) <= 1
   0 <= a(FLORES4B_8) <= 1
   0 <= a(FLORES4B_9) <= 1
   0 <= a(FLORES4B_10) <= 1
   0 <= a(FLORES4B_11) <= 1
   0 <= a(FLORES4B_12) <= 1
   0 <= a(FLORES4B_13) <= 1
   0 <= a(FLORES4B_14) <= 1
   0 <= a(FLORES4B_15) <= 1
   0 <= a(FLORES4B_16) <= 1
   0 <= a(FLORES4B_17) <= 1
   0 <= a(FLORES4B_18) <= 1
   0 <= a(FLORES4B_19) <= 1
   0 <= a(FLORES4B_20) <= 1
   0 <= a(FLORES4B_21) <= 1
   0 <= a(FLORES4B_22) <= 1
   0 <= a(FLORES4B_23) <= 1
   0 <= a(FLORES4B_24) <= 1
   0 <= p(FLORES4B_1) <= 1
   0 <= p(FLORES4B_2) <= 1
   0 <= p(FLORES4B_3) <= 1
   0 <= p(FLORES4B_4) <= 1
   0 <= p(FLORES4B_5) <= 1
   0 <= p(FLORES4B_6) <= 1
   0 <= p(FLORES4B_7) <= 1
   0 <= p(FLORES4B_8) <= 1
   0 <= p(FLORES4B_9) <= 1
   0 <= p(FLORES4B_10) <= 1
   0 <= p(FLORES4B_11) <= 1
   0 <= p(FLORES4B_12) <= 1
   0 <= p(FLORES4B_13) <= 1
   0 <= p(FLORES4B_14) <= 1
   0 <= p(FLORES4B_15) <= 1
   0 <= p(FLORES4B_16) <= 1
   0 <= p(FLORES4B_17) <= 1
   0 <= p(FLORES4B_18) <= 1
   0 <= p(FLORES4B_19) <= 1
   0 <= p(FLORES4B_20) <= 1
   0 <= p(FLORES4B_21) <= 1
   0 <= p(FLORES4B_22) <= 1
   0 <= p(FLORES4B_23) <= 1
   0 <= p(FLORES4B_24) <= 1
binary
  u(FLORES4B_1)
  u(FLORES4B_2)
  u(FLORES4B_3)
  u(FLORES4B_4)
  u(FLORES4B_5)
  u(FLORES4B_6)
  u(FLORES4B_7)
  u(FLORES4B_8)
  u(FLORES4B_9)
  u(FLORES4B_10)
  u(FLORES4B_11)
  u(FLORES4B_12)
  u(FLORES4B_13)
  u(FLORES4B_14)
  u(FLORES4B_15)
  u(FLORES4B_16)
  u(FLORES4B_17)
  u(FLORES4B_18)
  u(FLORES4B_19)
  u(FLORES4B_20)
  u(FLORES4B_21)
  u(FLORES4B_22)
  u(FLORES4B_23)
  u(FLORES4B_24)
  u(GUAVIO_1)
  u(GUAVIO_2)
  u(GUAVIO_3)
  u(GUAVIO_4)
  u(GUAVIO_5)
  u(GUAVIO_6)
  u(GUAVIO_7)
  u(GUAVIO_8)
  u(GUAVIO_9)
  u(GUAVIO_10)
  u(GUAVIO_11)
  u(GUAVIO_12)
  u(GUAVIO_13)
  u(GUAVIO_14)
  u(GUAVIO_15)
  u(GUAVIO_16)
  u(GUAVIO_17)
  u(GUAVIO_18)
  u(GUAVIO_19)
  u(GUAVIO_20)
  u(GUAVIO_21)
  u(GUAVIO_22)
  u(GUAVIO_23)
  u(GUAVIO_24)
  u(PORCE3_1)
  u(PORCE3_2)
  u(PORCE3_3)
  u(PORCE3_4)
  u(PORCE3_5)
  u(PORCE3_6)
  u(PORCE3_7)
  u(PORCE3_8)
  u(PORCE3_9)
  u(PORCE3_10)
  u(PORCE3_11)
  u(PORCE3_12)
  u(PORCE3_13)
  u(PORCE3_14)
  u(PORCE3_15)
  u(PORCE3_16)
  u(PORCE3_17)
  u(PORCE3_18)
  u(PORCE3_19)
  u(PORCE3_20)
  u(PORCE3_21)
  u(PORCE3_22)
  u(PORCE3_23)
  u(PORCE3_24)
  u(SUPERTRINA_8)
  u(SUPERTRINA_9)
  u(SUPERTRINA_10)
  u(SUPERTRINA_11)
  u(SUPERTRINA_12)
  u(SUPERTRINA_13)
  u(SUPERTRINA_14)
  u(SUPERTRINA_15)
  u(SUPERTRINA_16)
  u(SUPERTRINA_17)
  u(SUPERTRINA_18)
  u(SUPERTRINA_19)
  a(FLORES4B_1)
  a(FLORES4B_2)
  a(FLORES4B_3)
  a(FLORES4B_4)
  a(FLORES4B_5)
  a(FLORES4B_6)
  a(FLORES4B_7)
  a(FLORES4B_8)
  a(FLORES4B_9)
  a(FLORES4B_10)
  a(FLORES4B_11)
  a(FLORES4B_12)
  a(FLORES4B_13)
  a(FLORES4B_14)
  a(FLORES4B_15)
  a(FLORES4B_16)
  a(FLORES4B_17)
  a(FLORES4B_18)
  a(FLORES4B_19)
  a(FLORES4B_20)
  a(FLORES4B_21)
  a(FLORES4B_22)
  a(FLORES4B_23)
  a(FLORES4B_24)
  p(FLORES4B_1)
  p(FLORES4B_2)
  p(FLORES4B_3)
  p(FLORES4B_4)
  p(FLORES4B_5)
  p(FLORES4B_6)
  p(FLORES4B_7)
  p(FLORES4B_8)
  p(FLORES4B_9)
  p(FLORES4B_10)
  p(FLORES4B_11)
  p(FLORES4B_12)
  p(FLORES4B_13)
  p(FLORES4B_14)
  p(FLORES4B_15)
  p(FLORES4B_16)
  p(FLORES4B_17)
  p(FLORES4B_18)
  p(FLORES4B_19)
  p(FLORES4B_20)
  p(FLORES4B_21)
  p(FLORES4B_22)
  p(FLORES4B_23)
  p(FLORES4B_24)
end
